c description: Graph 3-Colorability of graph: 
c generator: CNFgen (0.9.0)
c copyright: (C) 2012-2020 Massimo Lauria <massimo.lauria@uniroma1.it>
c url: https://massimolauria.net/cnfgen
c
p cnf 150 650
1 2 3 0
-1 -2 0
-1 -3 0
-2 -3 0
4 5 6 0
-4 -5 0
-4 -6 0
-5 -6 0
7 8 9 0
-7 -8 0
-7 -9 0
-8 -9 0
10 11 12 0
-10 -11 0
-10 -12 0
-11 -12 0
13 14 15 0
-13 -14 0
-13 -15 0
-14 -15 0
16 17 18 0
-16 -17 0
-16 -18 0
-17 -18 0
19 20 21 0
-19 -20 0
-19 -21 0
-20 -21 0
22 23 24 0
-22 -23 0
-22 -24 0
-23 -24 0
25 26 27 0
-25 -26 0
-25 -27 0
-26 -27 0
28 29 30 0
-28 -29 0
-28 -30 0
-29 -30 0
31 32 33 0
-31 -32 0
-31 -33 0
-32 -33 0
34 35 36 0
-34 -35 0
-34 -36 0
-35 -36 0
37 38 39 0
-37 -38 0
-37 -39 0
-38 -39 0
40 41 42 0
-40 -41 0
-40 -42 0
-41 -42 0
43 44 45 0
-43 -44 0
-43 -45 0
-44 -45 0
46 47 48 0
-46 -47 0
-46 -48 0
-47 -48 0
49 50 51 0
-49 -50 0
-49 -51 0
-50 -51 0
52 53 54 0
-52 -53 0
-52 -54 0
-53 -54 0
55 56 57 0
-55 -56 0
-55 -57 0
-56 -57 0
58 59 60 0
-58 -59 0
-58 -60 0
-59 -60 0
61 62 63 0
-61 -62 0
-61 -63 0
-62 -63 0
64 65 66 0
-64 -65 0
-64 -66 0
-65 -66 0
67 68 69 0
-67 -68 0
-67 -69 0
-68 -69 0
70 71 72 0
-70 -71 0
-70 -72 0
-71 -72 0
73 74 75 0
-73 -74 0
-73 -75 0
-74 -75 0
76 77 78 0
-76 -77 0
-76 -78 0
-77 -78 0
79 80 81 0
-79 -80 0
-79 -81 0
-80 -81 0
82 83 84 0
-82 -83 0
-82 -84 0
-83 -84 0
85 86 87 0
-85 -86 0
-85 -87 0
-86 -87 0
88 89 90 0
-88 -89 0
-88 -90 0
-89 -90 0
91 92 93 0
-91 -92 0
-91 -93 0
-92 -93 0
94 95 96 0
-94 -95 0
-94 -96 0
-95 -96 0
97 98 99 0
-97 -98 0
-97 -99 0
-98 -99 0
100 101 102 0
-100 -101 0
-100 -102 0
-101 -102 0
103 104 105 0
-103 -104 0
-103 -105 0
-104 -105 0
106 107 108 0
-106 -107 0
-106 -108 0
-107 -108 0
109 110 111 0
-109 -110 0
-109 -111 0
-110 -111 0
112 113 114 0
-112 -113 0
-112 -114 0
-113 -114 0
115 116 117 0
-115 -116 0
-115 -117 0
-116 -117 0
118 119 120 0
-118 -119 0
-118 -120 0
-119 -120 0
121 122 123 0
-121 -122 0
-121 -123 0
-122 -123 0
124 125 126 0
-124 -125 0
-124 -126 0
-125 -126 0
127 128 129 0
-127 -128 0
-127 -129 0
-128 -129 0
130 131 132 0
-130 -131 0
-130 -132 0
-131 -132 0
133 134 135 0
-133 -134 0
-133 -135 0
-134 -135 0
136 137 138 0
-136 -137 0
-136 -138 0
-137 -138 0
139 140 141 0
-139 -140 0
-139 -141 0
-140 -141 0
142 143 144 0
-142 -143 0
-142 -144 0
-143 -144 0
145 146 147 0
-145 -146 0
-145 -147 0
-146 -147 0
148 149 150 0
-148 -149 0
-148 -150 0
-149 -150 0
-1 -10 0
-2 -11 0
-3 -12 0
-1 -19 0
-2 -20 0
-3 -21 0
-1 -28 0
-2 -29 0
-3 -30 0
-1 -91 0
-2 -92 0
-3 -93 0
-1 -94 0
-2 -95 0
-3 -96 0
-1 -103 0
-2 -104 0
-3 -105 0
-1 -112 0
-2 -113 0
-3 -114 0
-1 -145 0
-2 -146 0
-3 -147 0
-4 -34 0
-5 -35 0
-6 -36 0
-4 -43 0
-5 -44 0
-6 -45 0
-4 -139 0
-5 -140 0
-6 -141 0
-7 -10 0
-8 -11 0
-9 -12 0
-7 -22 0
-8 -23 0
-9 -24 0
-7 -52 0
-8 -53 0
-9 -54 0
-7 -97 0
-8 -98 0
-9 -99 0
-7 -100 0
-8 -101 0
-9 -102 0
-7 -145 0
-8 -146 0
-9 -147 0
-10 -25 0
-11 -26 0
-12 -27 0
-10 -46 0
-11 -47 0
-12 -48 0
-10 -49 0
-11 -50 0
-12 -51 0
-10 -115 0
-11 -116 0
-12 -117 0
-10 -148 0
-11 -149 0
-12 -150 0
-13 -19 0
-14 -20 0
-15 -21 0
-13 -22 0
-14 -23 0
-15 -24 0
-13 -70 0
-14 -71 0
-15 -72 0
-13 -73 0
-14 -74 0
-15 -75 0
-13 -91 0
-14 -92 0
-15 -93 0
-13 -106 0
-14 -107 0
-15 -108 0
-13 -121 0
-14 -122 0
-15 -123 0
-16 -19 0
-17 -20 0
-18 -21 0
-16 -64 0
-17 -65 0
-18 -66 0
-16 -91 0
-17 -92 0
-18 -93 0
-16 -94 0
-17 -95 0
-18 -96 0
-16 -106 0
-17 -107 0
-18 -108 0
-16 -127 0
-17 -128 0
-18 -129 0
-19 -25 0
-20 -26 0
-21 -27 0
-19 -34 0
-20 -35 0
-21 -36 0
-19 -61 0
-20 -62 0
-21 -63 0
-19 -136 0
-20 -137 0
-21 -138 0
-19 -148 0
-20 -149 0
-21 -150 0
-22 -31 0
-23 -32 0
-24 -33 0
-22 -43 0
-23 -44 0
-24 -45 0
-22 -82 0
-23 -83 0
-24 -84 0
-22 -124 0
-23 -125 0
-24 -126 0
-22 -133 0
-23 -134 0
-24 -135 0
-22 -145 0
-23 -146 0
-24 -147 0
-25 -43 0
-26 -44 0
-27 -45 0
-25 -46 0
-26 -47 0
-27 -48 0
-25 -49 0
-26 -50 0
-27 -51 0
-25 -52 0
-26 -53 0
-27 -54 0
-25 -55 0
-26 -56 0
-27 -57 0
-25 -61 0
-26 -62 0
-27 -63 0
-25 -79 0
-26 -80 0
-27 -81 0
-25 -88 0
-26 -89 0
-27 -90 0
-25 -103 0
-26 -104 0
-27 -105 0
-28 -34 0
-29 -35 0
-30 -36 0
-28 -40 0
-29 -41 0
-30 -42 0
-28 -91 0
-29 -92 0
-30 -93 0
-28 -142 0
-29 -143 0
-30 -144 0
-31 -49 0
-32 -50 0
-33 -51 0
-31 -55 0
-32 -56 0
-33 -57 0
-31 -112 0
-32 -113 0
-33 -114 0
-34 -94 0
-35 -95 0
-36 -96 0
-34 -142 0
-35 -143 0
-36 -144 0
-37 -58 0
-38 -59 0
-39 -60 0
-37 -85 0
-38 -86 0
-39 -87 0
-37 -91 0
-38 -92 0
-39 -93 0
-37 -103 0
-38 -104 0
-39 -105 0
-37 -118 0
-38 -119 0
-39 -120 0
-37 -130 0
-38 -131 0
-39 -132 0
-37 -133 0
-38 -134 0
-39 -135 0
-40 -61 0
-41 -62 0
-42 -63 0
-40 -64 0
-41 -65 0
-42 -66 0
-40 -127 0
-41 -128 0
-42 -129 0
-43 -67 0
-44 -68 0
-45 -69 0
-43 -109 0
-44 -110 0
-45 -111 0
-43 -121 0
-44 -122 0
-45 -123 0
-43 -124 0
-44 -125 0
-45 -126 0
-43 -133 0
-44 -134 0
-45 -135 0
-46 -58 0
-47 -59 0
-48 -60 0
-46 -97 0
-47 -98 0
-48 -99 0
-46 -112 0
-47 -113 0
-48 -114 0
-46 -115 0
-47 -116 0
-48 -117 0
-46 -142 0
-47 -143 0
-48 -144 0
-49 -88 0
-50 -89 0
-51 -90 0
-49 -112 0
-50 -113 0
-51 -114 0
-49 -115 0
-50 -116 0
-51 -117 0
-52 -106 0
-53 -107 0
-54 -108 0
-52 -115 0
-53 -116 0
-54 -117 0
-52 -133 0
-53 -134 0
-54 -135 0
-52 -139 0
-53 -140 0
-54 -141 0
-55 -67 0
-56 -68 0
-57 -69 0
-55 -127 0
-56 -128 0
-57 -129 0
-55 -139 0
-56 -140 0
-57 -141 0
-55 -145 0
-56 -146 0
-57 -147 0
-58 -121 0
-59 -122 0
-60 -123 0
-58 -139 0
-59 -140 0
-60 -141 0
-58 -148 0
-59 -149 0
-60 -150 0
-61 -70 0
-62 -71 0
-63 -72 0
-61 -127 0
-62 -128 0
-63 -129 0
-61 -139 0
-62 -140 0
-63 -141 0
-61 -142 0
-62 -143 0
-63 -144 0
-64 -79 0
-65 -80 0
-66 -81 0
-64 -100 0
-65 -101 0
-66 -102 0
-64 -136 0
-65 -137 0
-66 -138 0
-64 -145 0
-65 -146 0
-66 -147 0
-67 -88 0
-68 -89 0
-69 -90 0
-67 -148 0
-68 -149 0
-69 -150 0
-70 -73 0
-71 -74 0
-72 -75 0
-70 -109 0
-71 -110 0
-72 -111 0
-70 -121 0
-71 -122 0
-72 -123 0
-70 -139 0
-71 -140 0
-72 -141 0
-73 -115 0
-74 -116 0
-75 -117 0
-73 -127 0
-74 -128 0
-75 -129 0
-73 -130 0
-74 -131 0
-75 -132 0
-76 -100 0
-77 -101 0
-78 -102 0
-76 -103 0
-77 -104 0
-78 -105 0
-79 -130 0
-80 -131 0
-81 -132 0
-82 -97 0
-83 -98 0
-84 -99 0
-82 -106 0
-83 -107 0
-84 -108 0
-82 -109 0
-83 -110 0
-84 -111 0
-85 -88 0
-86 -89 0
-87 -90 0
-85 -106 0
-86 -107 0
-87 -108 0
-85 -130 0
-86 -131 0
-87 -132 0
-88 -112 0
-89 -113 0
-90 -114 0
-88 -136 0
-89 -137 0
-90 -138 0
-94 -142 0
-95 -143 0
-96 -144 0
-97 -124 0
-98 -125 0
-99 -126 0
-97 -142 0
-98 -143 0
-99 -144 0
-100 -118 0
-101 -119 0
-102 -120 0
-100 -124 0
-101 -125 0
-102 -126 0
-103 -115 0
-104 -116 0
-105 -117 0
-103 -133 0
-104 -134 0
-105 -135 0
-103 -145 0
-104 -146 0
-105 -147 0
-103 -148 0
-104 -149 0
-105 -150 0
-106 -109 0
-107 -110 0
-108 -111 0
-106 -121 0
-107 -122 0
-108 -123 0
-106 -127 0
-107 -128 0
-108 -129 0
-106 -130 0
-107 -131 0
-108 -132 0
-106 -145 0
-107 -146 0
-108 -147 0
-112 -115 0
-113 -116 0
-114 -117 0
-115 -121 0
-116 -122 0
-117 -123 0
-115 -133 0
-116 -134 0
-117 -135 0
-115 -145 0
-116 -146 0
-117 -147 0
-118 -127 0
-119 -128 0
-120 -129 0
-127 -130 0
-128 -131 0
-129 -132 0
-130 -133 0
-131 -134 0
-132 -135 0
-139 -142 0
-140 -143 0
-141 -144 0
-139 -148 0
-140 -149 0
-141 -150 0
-145 -148 0
-146 -149 0
-147 -150 0